
%FILE DATA:	Soccer Computational Problem for MiniZinc Models	%
%AUTHOR:	Jack Wall	%
%CONTACT:  	116397063@umail.ucc.ie			%
%LAST UPDATE:	02/24/2020, 18:49:01						%
%DESCRIPTION: 	28 games played with 14 games left				%


n=7; %number of teams

%Games to play
games=[|6,3|2,3|1,7|6,5|4,6|1,4|7,3|4,2|6,2|4,3|3,4|3,1|4,7|1,6|];

%Initial points
iPoints=[9,10,7,5,17,9,19];

%POSITION CONSTRAINTS
% [|teamID, operator, position|...]
% operators index:
%  1 for =  operator
%  2 for >  operator
%  3 for >= operator
%  4 for <  operator
%  5 for <= operator
positionConstraints=[|7,5,1|5,4,3|1,2,2|];